Route #1: 28 15 12 9 11 37 25 31 40 21 44 29 34 4 32 26 36 27 3
Route #2: 35 23 39 24 5 43 10
Route #3: 
Route #4: 38 22 7 42 14
Route #5: 6 41 16 13 2 17 8 30 33 19 20
Route #6: 18
Route #7: 1
cost 1060.2154332941402
